Minimize
	value: tt

Subject to
s_1_9 = 1
tt + 1000 s_1_1 > 0.0
tt - t_1_1 - 1000.000000 s_1_1  > -995.721300
tt + 1000 s_2_1 > 0.0
tt - t_2_1 - 1000.000000 s_2_1  > -993.096300
tt + 1000 s_1_2 > 0.0
tt - t_1_2 - 1000.000000 s_1_2  > -996.918700
tt + 1000 s_2_2 > 0.0
tt - t_2_2 - 1000.000000 s_2_2  > -994.666900
tt + 1000 s_1_3 > 0.0
tt - t_1_3 - 1000.000000 s_1_3  > -995.443400
tt + 1000 s_2_3 > 0.0
tt - t_2_3 - 1000.000000 s_2_3  > -993.477300
tt + 1000 s_1_4 > 0.0
tt - t_1_4 - 1000.000000 s_1_4  > -996.930200
tt + 1000 s_2_4 > 0.0
tt - t_2_4 - 1000.000000 s_2_4  > -994.813700
tt + 1000 s_1_5 > 0.0
tt - t_1_5 - 1000.000000 s_1_5  > -995.609900
tt + 1000 s_2_5 > 0.0
tt - t_2_5 - 1000.000000 s_2_5  > -993.608600
tt + 1000 s_1_6 > 0.0
tt - t_1_6 - 1000.000000 s_1_6  > -993.690800
tt + 1000 s_2_6 > 0.0
tt - t_2_6 - 1000.000000 s_2_6  > -991.385500
tt + 1000 s_1_7 > 0.0
tt - t_1_7 - 1000.000000 s_1_7  > -997.927500
tt + 1000 s_2_7 > 0.0
tt - t_2_7 - 1000.000000 s_2_7  > -995.592333
tt + 1000 s_1_8 > 0.0
tt - t_1_8 - 1000.000000 s_1_8  > -995.691100
tt + 1000 s_2_8 > 0.0
tt - t_2_8 - 1000.000000 s_2_8  > -993.035200
tt + 1000 s_1_9 > 0.0
tt - t_1_9 - 1000.000000 s_1_9  > -998.985200
tt + 1000 s_2_9 > 0.0
tt - t_2_9 - 1000.000000 s_2_9  > -997.364100
s_1_1 + s_2_1 = 1
s_1_2 + s_2_2 = 1
s_1_3 + s_2_3 = 1
s_1_4 + s_2_4 = 1
s_1_5 + s_2_5 = 1
s_1_6 + s_2_6 = 1
s_1_7 + s_2_7 = 1
s_1_8 + s_2_8 = 1
s_1_9 + s_2_9 = 1
s_1_1 + s_1_2 + 1000 r_1_1_2 >= 2
- s_1_1 - s_1_2 - 1000 r_1_1_2 >= -1001
t_1_1 - t_1_2 - 1000.000000 u_1_1_2 - 0.000000 s_1_2  + 2000.000000 r_1_1_2 > -996.918700
s_2_1 + s_2_2 + 1000 r_2_1_2 >= 2
- s_2_1 - s_2_2 - 1000 r_2_1_2 >= -1001
t_2_1 - t_2_2 - 1000.000000 u_2_1_2 - 0.000000 s_2_2  + 2000.000000 r_2_1_2 > -994.666900
s_1_1 + s_1_3 + 1000 r_1_1_3 >= 2
- s_1_1 - s_1_3 - 1000 r_1_1_3 >= -1001
t_1_1 - t_1_3 - 1000.000000 u_1_1_3 - 0.000000 s_1_3  + 2000.000000 r_1_1_3 > -995.443400
s_2_1 + s_2_3 + 1000 r_2_1_3 >= 2
- s_2_1 - s_2_3 - 1000 r_2_1_3 >= -1001
t_2_1 - t_2_3 - 1000.000000 u_2_1_3 - 0.000000 s_2_3  + 2000.000000 r_2_1_3 > -993.477300
s_1_1 + s_1_4 + 1000 r_1_1_4 >= 2
- s_1_1 - s_1_4 - 1000 r_1_1_4 >= -1001
t_1_1 - t_1_4 - 1000.000000 u_1_1_4 - 0.000000 s_1_4  + 2000.000000 r_1_1_4 > -996.930200
s_2_1 + s_2_4 + 1000 r_2_1_4 >= 2
- s_2_1 - s_2_4 - 1000 r_2_1_4 >= -1001
t_2_1 - t_2_4 - 1000.000000 u_2_1_4 - 0.000000 s_2_4  + 2000.000000 r_2_1_4 > -994.813700
s_1_1 + s_1_5 + 1000 r_1_1_5 >= 2
- s_1_1 - s_1_5 - 1000 r_1_1_5 >= -1001
t_1_1 - t_1_5 - 1000.000000 u_1_1_5 - 0.000000 s_1_5  + 2000.000000 r_1_1_5 > -995.609900
s_2_1 + s_2_5 + 1000 r_2_1_5 >= 2
- s_2_1 - s_2_5 - 1000 r_2_1_5 >= -1001
t_2_1 - t_2_5 - 1000.000000 u_2_1_5 - 0.000000 s_2_5  + 2000.000000 r_2_1_5 > -993.608600
s_1_1 + s_1_6 + 1000 r_1_1_6 >= 2
- s_1_1 - s_1_6 - 1000 r_1_1_6 >= -1001
t_1_1 - t_1_6 - 1000.000000 u_1_1_6 - 0.000000 s_1_6  + 2000.000000 r_1_1_6 > -993.690800
s_2_1 + s_2_6 + 1000 r_2_1_6 >= 2
- s_2_1 - s_2_6 - 1000 r_2_1_6 >= -1001
t_2_1 - t_2_6 - 1000.000000 u_2_1_6 - 0.000000 s_2_6  + 2000.000000 r_2_1_6 > -991.385500
s_1_1 + s_1_7 + 1000 r_1_1_7 >= 2
- s_1_1 - s_1_7 - 1000 r_1_1_7 >= -1001
t_1_1 - t_1_7 - 1000.000000 u_1_1_7 - 0.000000 s_1_7  + 2000.000000 r_1_1_7 > -997.927500
s_2_1 + s_2_7 + 1000 r_2_1_7 >= 2
- s_2_1 - s_2_7 - 1000 r_2_1_7 >= -1001
t_2_1 - t_2_7 - 1000.000000 u_2_1_7 - 0.000000 s_2_7  + 2000.000000 r_2_1_7 > -995.592333
s_1_1 + s_1_8 + 1000 r_1_1_8 >= 2
- s_1_1 - s_1_8 - 1000 r_1_1_8 >= -1001
t_1_1 - t_1_8 - 1000.000000 u_1_1_8 - 0.000000 s_1_8  + 2000.000000 r_1_1_8 > -995.691100
s_2_1 + s_2_8 + 1000 r_2_1_8 >= 2
- s_2_1 - s_2_8 - 1000 r_2_1_8 >= -1001
t_2_1 - t_2_8 - 1000.000000 u_2_1_8 - 0.000000 s_2_8  + 2000.000000 r_2_1_8 > -993.035200
t_1_9 - t_1_1 - 1000.000000 s_1_1  > -995.721300
t_1_9 - t_2_1 - 1000.000000 s_2_1  > -993.096300
t_2_9 - t_1_1 - 1000.000000 s_1_1  > -995.721300
t_2_9 - t_2_1 - 1000.000000 s_2_1  > -993.096300
s_1_2 + s_1_1 + 1000 r_1_1_2 >= 2
- s_1_2 - s_1_1 - 1000 r_1_1_2 >= -1001
t_1_2 - t_1_1 + 1000.000000 u_1_1_2 - 0.000000 s_1_1  + 2000.000000 r_1_1_2 > 4.278700
s_2_2 + s_2_1 + 1000 r_2_1_2 >= 2
- s_2_2 - s_2_1 - 1000 r_2_1_2 >= -1001
t_2_2 - t_2_1 + 1000.000000 u_2_1_2 - 0.000000 s_2_1  + 2000.000000 r_2_1_2 > 6.903700
t_1_3 - t_1_2 - 1000.000000 s_1_2  > -996.918700
t_1_3 - t_2_2 - 1000.000000 s_2_2  > -994.666900
t_2_3 - t_1_2 - 1000.000000 s_1_2  > -996.918700
t_2_3 - t_2_2 - 1000.000000 s_2_2  > -994.666900
s_1_2 + s_1_4 + 1000 r_1_2_4 >= 2
- s_1_2 - s_1_4 - 1000 r_1_2_4 >= -1001
t_1_2 - t_1_4 - 1000.000000 u_1_2_4 - 0.000000 s_1_4  + 2000.000000 r_1_2_4 > -996.930200
s_2_2 + s_2_4 + 1000 r_2_2_4 >= 2
- s_2_2 - s_2_4 - 1000 r_2_2_4 >= -1001
t_2_2 - t_2_4 - 1000.000000 u_2_2_4 - 0.000000 s_2_4  + 2000.000000 r_2_2_4 > -994.813700
s_1_2 + s_1_5 + 1000 r_1_2_5 >= 2
- s_1_2 - s_1_5 - 1000 r_1_2_5 >= -1001
t_1_2 - t_1_5 - 1000.000000 u_1_2_5 - 0.000000 s_1_5  + 2000.000000 r_1_2_5 > -995.609900
s_2_2 + s_2_5 + 1000 r_2_2_5 >= 2
- s_2_2 - s_2_5 - 1000 r_2_2_5 >= -1001
t_2_2 - t_2_5 - 1000.000000 u_2_2_5 - 0.000000 s_2_5  + 2000.000000 r_2_2_5 > -993.608600
s_1_2 + s_1_6 + 1000 r_1_2_6 >= 2
- s_1_2 - s_1_6 - 1000 r_1_2_6 >= -1001
t_1_2 - t_1_6 - 1000.000000 u_1_2_6 - 0.000000 s_1_6  + 2000.000000 r_1_2_6 > -993.690800
s_2_2 + s_2_6 + 1000 r_2_2_6 >= 2
- s_2_2 - s_2_6 - 1000 r_2_2_6 >= -1001
t_2_2 - t_2_6 - 1000.000000 u_2_2_6 - 0.000000 s_2_6  + 2000.000000 r_2_2_6 > -991.385500
s_1_2 + s_1_7 + 1000 r_1_2_7 >= 2
- s_1_2 - s_1_7 - 1000 r_1_2_7 >= -1001
t_1_2 - t_1_7 - 1000.000000 u_1_2_7 - 0.000000 s_1_7  + 2000.000000 r_1_2_7 > -997.927500
s_2_2 + s_2_7 + 1000 r_2_2_7 >= 2
- s_2_2 - s_2_7 - 1000 r_2_2_7 >= -1001
t_2_2 - t_2_7 - 1000.000000 u_2_2_7 - 0.000000 s_2_7  + 2000.000000 r_2_2_7 > -995.592333
s_1_2 + s_1_8 + 1000 r_1_2_8 >= 2
- s_1_2 - s_1_8 - 1000 r_1_2_8 >= -1001
t_1_2 - t_1_8 - 1000.000000 u_1_2_8 - 0.000000 s_1_8  + 2000.000000 r_1_2_8 > -995.691100
s_2_2 + s_2_8 + 1000 r_2_2_8 >= 2
- s_2_2 - s_2_8 - 1000 r_2_2_8 >= -1001
t_2_2 - t_2_8 - 1000.000000 u_2_2_8 - 0.000000 s_2_8  + 2000.000000 r_2_2_8 > -993.035200
s_1_3 + s_1_1 + 1000 r_1_1_3 >= 2
- s_1_3 - s_1_1 - 1000 r_1_1_3 >= -1001
t_1_3 - t_1_1 + 1000.000000 u_1_1_3 - 0.000000 s_1_1  + 2000.000000 r_1_1_3 > 4.278700
s_2_3 + s_2_1 + 1000 r_2_1_3 >= 2
- s_2_3 - s_2_1 - 1000 r_2_1_3 >= -1001
t_2_3 - t_2_1 + 1000.000000 u_2_1_3 - 0.000000 s_2_1  + 2000.000000 r_2_1_3 > 6.903700
s_1_3 + s_1_4 + 1000 r_1_3_4 >= 2
- s_1_3 - s_1_4 - 1000 r_1_3_4 >= -1001
t_1_3 - t_1_4 - 1000.000000 u_1_3_4 - 0.000000 s_1_4  + 2000.000000 r_1_3_4 > -996.930200
s_2_3 + s_2_4 + 1000 r_2_3_4 >= 2
- s_2_3 - s_2_4 - 1000 r_2_3_4 >= -1001
t_2_3 - t_2_4 - 1000.000000 u_2_3_4 - 0.000000 s_2_4  + 2000.000000 r_2_3_4 > -994.813700
s_1_3 + s_1_5 + 1000 r_1_3_5 >= 2
- s_1_3 - s_1_5 - 1000 r_1_3_5 >= -1001
t_1_3 - t_1_5 - 1000.000000 u_1_3_5 - 0.000000 s_1_5  + 2000.000000 r_1_3_5 > -995.609900
s_2_3 + s_2_5 + 1000 r_2_3_5 >= 2
- s_2_3 - s_2_5 - 1000 r_2_3_5 >= -1001
t_2_3 - t_2_5 - 1000.000000 u_2_3_5 - 0.000000 s_2_5  + 2000.000000 r_2_3_5 > -993.608600
s_1_3 + s_1_6 + 1000 r_1_3_6 >= 2
- s_1_3 - s_1_6 - 1000 r_1_3_6 >= -1001
t_1_3 - t_1_6 - 1000.000000 u_1_3_6 - 0.000000 s_1_6  + 2000.000000 r_1_3_6 > -993.690800
s_2_3 + s_2_6 + 1000 r_2_3_6 >= 2
- s_2_3 - s_2_6 - 1000 r_2_3_6 >= -1001
t_2_3 - t_2_6 - 1000.000000 u_2_3_6 - 0.000000 s_2_6  + 2000.000000 r_2_3_6 > -991.385500
s_1_3 + s_1_7 + 1000 r_1_3_7 >= 2
- s_1_3 - s_1_7 - 1000 r_1_3_7 >= -1001
t_1_3 - t_1_7 - 1000.000000 u_1_3_7 - 0.000000 s_1_7  + 2000.000000 r_1_3_7 > -997.927500
s_2_3 + s_2_7 + 1000 r_2_3_7 >= 2
- s_2_3 - s_2_7 - 1000 r_2_3_7 >= -1001
t_2_3 - t_2_7 - 1000.000000 u_2_3_7 - 0.000000 s_2_7  + 2000.000000 r_2_3_7 > -995.592333
s_1_3 + s_1_8 + 1000 r_1_3_8 >= 2
- s_1_3 - s_1_8 - 1000 r_1_3_8 >= -1001
t_1_3 - t_1_8 - 1000.000000 u_1_3_8 - 0.000000 s_1_8  + 2000.000000 r_1_3_8 > -995.691100
s_2_3 + s_2_8 + 1000 r_2_3_8 >= 2
- s_2_3 - s_2_8 - 1000 r_2_3_8 >= -1001
t_2_3 - t_2_8 - 1000.000000 u_2_3_8 - 0.000000 s_2_8  + 2000.000000 r_2_3_8 > -993.035200
t_1_9 - t_1_3 - 1000.000000 s_1_3  > -995.443400
t_1_9 - t_2_3 - 1000.000000 s_2_3  > -993.477300
t_2_9 - t_1_3 - 1000.000000 s_1_3  > -995.443400
t_2_9 - t_2_3 - 1000.000000 s_2_3  > -993.477300
s_1_4 + s_1_1 + 1000 r_1_1_4 >= 2
- s_1_4 - s_1_1 - 1000 r_1_1_4 >= -1001
t_1_4 - t_1_1 + 1000.000000 u_1_1_4 - 0.000000 s_1_1  + 2000.000000 r_1_1_4 > 4.278700
s_2_4 + s_2_1 + 1000 r_2_1_4 >= 2
- s_2_4 - s_2_1 - 1000 r_2_1_4 >= -1001
t_2_4 - t_2_1 + 1000.000000 u_2_1_4 - 0.000000 s_2_1  + 2000.000000 r_2_1_4 > 6.903700
s_1_4 + s_1_2 + 1000 r_1_2_4 >= 2
- s_1_4 - s_1_2 - 1000 r_1_2_4 >= -1001
t_1_4 - t_1_2 + 1000.000000 u_1_2_4 - 0.000000 s_1_2  + 2000.000000 r_1_2_4 > 3.081300
s_2_4 + s_2_2 + 1000 r_2_2_4 >= 2
- s_2_4 - s_2_2 - 1000 r_2_2_4 >= -1001
t_2_4 - t_2_2 + 1000.000000 u_2_2_4 - 0.000000 s_2_2  + 2000.000000 r_2_2_4 > 5.333100
s_1_4 + s_1_3 + 1000 r_1_3_4 >= 2
- s_1_4 - s_1_3 - 1000 r_1_3_4 >= -1001
t_1_4 - t_1_3 + 1000.000000 u_1_3_4 - 0.000000 s_1_3  + 2000.000000 r_1_3_4 > 4.556600
s_2_4 + s_2_3 + 1000 r_2_3_4 >= 2
- s_2_4 - s_2_3 - 1000 r_2_3_4 >= -1001
t_2_4 - t_2_3 + 1000.000000 u_2_3_4 - 0.000000 s_2_3  + 2000.000000 r_2_3_4 > 6.522700
t_1_5 - t_1_4 - 1000.000000 s_1_4  > -996.930200
t_1_5 - t_2_4 - 1000.000000 s_2_4  > -994.813700
t_2_5 - t_1_4 - 1000.000000 s_1_4  > -996.930200
t_2_5 - t_2_4 - 1000.000000 s_2_4  > -994.813700
s_1_4 + s_1_7 + 1000 r_1_4_7 >= 2
- s_1_4 - s_1_7 - 1000 r_1_4_7 >= -1001
t_1_4 - t_1_7 - 1000.000000 u_1_4_7 - 0.000000 s_1_7  + 2000.000000 r_1_4_7 > -997.927500
s_2_4 + s_2_7 + 1000 r_2_4_7 >= 2
- s_2_4 - s_2_7 - 1000 r_2_4_7 >= -1001
t_2_4 - t_2_7 - 1000.000000 u_2_4_7 - 0.000000 s_2_7  + 2000.000000 r_2_4_7 > -995.592333
s_1_4 + s_1_8 + 1000 r_1_4_8 >= 2
- s_1_4 - s_1_8 - 1000 r_1_4_8 >= -1001
t_1_4 - t_1_8 - 1000.000000 u_1_4_8 - 0.000000 s_1_8  + 2000.000000 r_1_4_8 > -995.691100
s_2_4 + s_2_8 + 1000 r_2_4_8 >= 2
- s_2_4 - s_2_8 - 1000 r_2_4_8 >= -1001
t_2_4 - t_2_8 - 1000.000000 u_2_4_8 - 0.000000 s_2_8  + 2000.000000 r_2_4_8 > -993.035200
s_1_5 + s_1_1 + 1000 r_1_1_5 >= 2
- s_1_5 - s_1_1 - 1000 r_1_1_5 >= -1001
t_1_5 - t_1_1 + 1000.000000 u_1_1_5 - 0.000000 s_1_1  + 2000.000000 r_1_1_5 > 4.278700
s_2_5 + s_2_1 + 1000 r_2_1_5 >= 2
- s_2_5 - s_2_1 - 1000 r_2_1_5 >= -1001
t_2_5 - t_2_1 + 1000.000000 u_2_1_5 - 0.000000 s_2_1  + 2000.000000 r_2_1_5 > 6.903700
s_1_5 + s_1_2 + 1000 r_1_2_5 >= 2
- s_1_5 - s_1_2 - 1000 r_1_2_5 >= -1001
t_1_5 - t_1_2 + 1000.000000 u_1_2_5 - 0.000000 s_1_2  + 2000.000000 r_1_2_5 > 3.081300
s_2_5 + s_2_2 + 1000 r_2_2_5 >= 2
- s_2_5 - s_2_2 - 1000 r_2_2_5 >= -1001
t_2_5 - t_2_2 + 1000.000000 u_2_2_5 - 0.000000 s_2_2  + 2000.000000 r_2_2_5 > 5.333100
s_1_5 + s_1_3 + 1000 r_1_3_5 >= 2
- s_1_5 - s_1_3 - 1000 r_1_3_5 >= -1001
t_1_5 - t_1_3 + 1000.000000 u_1_3_5 - 0.000000 s_1_3  + 2000.000000 r_1_3_5 > 4.556600
s_2_5 + s_2_3 + 1000 r_2_3_5 >= 2
- s_2_5 - s_2_3 - 1000 r_2_3_5 >= -1001
t_2_5 - t_2_3 + 1000.000000 u_2_3_5 - 0.000000 s_2_3  + 2000.000000 r_2_3_5 > 6.522700
t_1_6 - t_1_5 - 1000.000000 s_1_5  > -995.609900
t_1_6 - t_2_5 - 1000.000000 s_2_5  > -993.608600
t_2_6 - t_1_5 - 1000.000000 s_1_5  > -995.609900
t_2_6 - t_2_5 - 1000.000000 s_2_5  > -993.608600
s_1_5 + s_1_7 + 1000 r_1_5_7 >= 2
- s_1_5 - s_1_7 - 1000 r_1_5_7 >= -1001
t_1_5 - t_1_7 - 1000.000000 u_1_5_7 - 0.000000 s_1_7  + 2000.000000 r_1_5_7 > -997.927500
s_2_5 + s_2_7 + 1000 r_2_5_7 >= 2
- s_2_5 - s_2_7 - 1000 r_2_5_7 >= -1001
t_2_5 - t_2_7 - 1000.000000 u_2_5_7 - 0.000000 s_2_7  + 2000.000000 r_2_5_7 > -995.592333
s_1_5 + s_1_8 + 1000 r_1_5_8 >= 2
- s_1_5 - s_1_8 - 1000 r_1_5_8 >= -1001
t_1_5 - t_1_8 - 1000.000000 u_1_5_8 - 0.000000 s_1_8  + 2000.000000 r_1_5_8 > -995.691100
s_2_5 + s_2_8 + 1000 r_2_5_8 >= 2
- s_2_5 - s_2_8 - 1000 r_2_5_8 >= -1001
t_2_5 - t_2_8 - 1000.000000 u_2_5_8 - 0.000000 s_2_8  + 2000.000000 r_2_5_8 > -993.035200
s_1_6 + s_1_1 + 1000 r_1_1_6 >= 2
- s_1_6 - s_1_1 - 1000 r_1_1_6 >= -1001
t_1_6 - t_1_1 + 1000.000000 u_1_1_6 - 0.000000 s_1_1  + 2000.000000 r_1_1_6 > 4.278700
s_2_6 + s_2_1 + 1000 r_2_1_6 >= 2
- s_2_6 - s_2_1 - 1000 r_2_1_6 >= -1001
t_2_6 - t_2_1 + 1000.000000 u_2_1_6 - 0.000000 s_2_1  + 2000.000000 r_2_1_6 > 6.903700
s_1_6 + s_1_2 + 1000 r_1_2_6 >= 2
- s_1_6 - s_1_2 - 1000 r_1_2_6 >= -1001
t_1_6 - t_1_2 + 1000.000000 u_1_2_6 - 0.000000 s_1_2  + 2000.000000 r_1_2_6 > 3.081300
s_2_6 + s_2_2 + 1000 r_2_2_6 >= 2
- s_2_6 - s_2_2 - 1000 r_2_2_6 >= -1001
t_2_6 - t_2_2 + 1000.000000 u_2_2_6 - 0.000000 s_2_2  + 2000.000000 r_2_2_6 > 5.333100
s_1_6 + s_1_3 + 1000 r_1_3_6 >= 2
- s_1_6 - s_1_3 - 1000 r_1_3_6 >= -1001
t_1_6 - t_1_3 + 1000.000000 u_1_3_6 - 0.000000 s_1_3  + 2000.000000 r_1_3_6 > 4.556600
s_2_6 + s_2_3 + 1000 r_2_3_6 >= 2
- s_2_6 - s_2_3 - 1000 r_2_3_6 >= -1001
t_2_6 - t_2_3 + 1000.000000 u_2_3_6 - 0.000000 s_2_3  + 2000.000000 r_2_3_6 > 6.522700
s_1_6 + s_1_7 + 1000 r_1_6_7 >= 2
- s_1_6 - s_1_7 - 1000 r_1_6_7 >= -1001
t_1_6 - t_1_7 - 1000.000000 u_1_6_7 - 0.000000 s_1_7  + 2000.000000 r_1_6_7 > -997.927500
s_2_6 + s_2_7 + 1000 r_2_6_7 >= 2
- s_2_6 - s_2_7 - 1000 r_2_6_7 >= -1001
t_2_6 - t_2_7 - 1000.000000 u_2_6_7 - 0.000000 s_2_7  + 2000.000000 r_2_6_7 > -995.592333
s_1_6 + s_1_8 + 1000 r_1_6_8 >= 2
- s_1_6 - s_1_8 - 1000 r_1_6_8 >= -1001
t_1_6 - t_1_8 - 1000.000000 u_1_6_8 - 0.000000 s_1_8  + 2000.000000 r_1_6_8 > -995.691100
s_2_6 + s_2_8 + 1000 r_2_6_8 >= 2
- s_2_6 - s_2_8 - 1000 r_2_6_8 >= -1001
t_2_6 - t_2_8 - 1000.000000 u_2_6_8 - 0.000000 s_2_8  + 2000.000000 r_2_6_8 > -993.035200
t_1_9 - t_1_6 - 1000.000000 s_1_6  > -993.690800
t_1_9 - t_2_6 - 1000.000000 s_2_6  > -991.385500
t_2_9 - t_1_6 - 1000.000000 s_1_6  > -993.690800
t_2_9 - t_2_6 - 1000.000000 s_2_6  > -991.385500
s_1_7 + s_1_1 + 1000 r_1_1_7 >= 2
- s_1_7 - s_1_1 - 1000 r_1_1_7 >= -1001
t_1_7 - t_1_1 + 1000.000000 u_1_1_7 - 0.000000 s_1_1  + 2000.000000 r_1_1_7 > 4.278700
s_2_7 + s_2_1 + 1000 r_2_1_7 >= 2
- s_2_7 - s_2_1 - 1000 r_2_1_7 >= -1001
t_2_7 - t_2_1 + 1000.000000 u_2_1_7 - 0.000000 s_2_1  + 2000.000000 r_2_1_7 > 6.903700
s_1_7 + s_1_2 + 1000 r_1_2_7 >= 2
- s_1_7 - s_1_2 - 1000 r_1_2_7 >= -1001
t_1_7 - t_1_2 + 1000.000000 u_1_2_7 - 0.000000 s_1_2  + 2000.000000 r_1_2_7 > 3.081300
s_2_7 + s_2_2 + 1000 r_2_2_7 >= 2
- s_2_7 - s_2_2 - 1000 r_2_2_7 >= -1001
t_2_7 - t_2_2 + 1000.000000 u_2_2_7 - 0.000000 s_2_2  + 2000.000000 r_2_2_7 > 5.333100
s_1_7 + s_1_3 + 1000 r_1_3_7 >= 2
- s_1_7 - s_1_3 - 1000 r_1_3_7 >= -1001
t_1_7 - t_1_3 + 1000.000000 u_1_3_7 - 0.000000 s_1_3  + 2000.000000 r_1_3_7 > 4.556600
s_2_7 + s_2_3 + 1000 r_2_3_7 >= 2
- s_2_7 - s_2_3 - 1000 r_2_3_7 >= -1001
t_2_7 - t_2_3 + 1000.000000 u_2_3_7 - 0.000000 s_2_3  + 2000.000000 r_2_3_7 > 6.522700
s_1_7 + s_1_4 + 1000 r_1_4_7 >= 2
- s_1_7 - s_1_4 - 1000 r_1_4_7 >= -1001
t_1_7 - t_1_4 + 1000.000000 u_1_4_7 - 0.000000 s_1_4  + 2000.000000 r_1_4_7 > 3.069800
s_2_7 + s_2_4 + 1000 r_2_4_7 >= 2
- s_2_7 - s_2_4 - 1000 r_2_4_7 >= -1001
t_2_7 - t_2_4 + 1000.000000 u_2_4_7 - 0.000000 s_2_4  + 2000.000000 r_2_4_7 > 5.186300
s_1_7 + s_1_5 + 1000 r_1_5_7 >= 2
- s_1_7 - s_1_5 - 1000 r_1_5_7 >= -1001
t_1_7 - t_1_5 + 1000.000000 u_1_5_7 - 0.000000 s_1_5  + 2000.000000 r_1_5_7 > 4.390100
s_2_7 + s_2_5 + 1000 r_2_5_7 >= 2
- s_2_7 - s_2_5 - 1000 r_2_5_7 >= -1001
t_2_7 - t_2_5 + 1000.000000 u_2_5_7 - 0.000000 s_2_5  + 2000.000000 r_2_5_7 > 6.391400
s_1_7 + s_1_6 + 1000 r_1_6_7 >= 2
- s_1_7 - s_1_6 - 1000 r_1_6_7 >= -1001
t_1_7 - t_1_6 + 1000.000000 u_1_6_7 - 0.000000 s_1_6  + 2000.000000 r_1_6_7 > 6.309200
s_2_7 + s_2_6 + 1000 r_2_6_7 >= 2
- s_2_7 - s_2_6 - 1000 r_2_6_7 >= -1001
t_2_7 - t_2_6 + 1000.000000 u_2_6_7 - 0.000000 s_2_6  + 2000.000000 r_2_6_7 > 8.614500
t_1_8 - t_1_7 - 1000.000000 s_1_7  > -997.927500
t_1_8 - t_2_7 - 1000.000000 s_2_7  > -995.592333
t_2_8 - t_1_7 - 1000.000000 s_1_7  > -997.927500
t_2_8 - t_2_7 - 1000.000000 s_2_7  > -995.592333
s_1_8 + s_1_1 + 1000 r_1_1_8 >= 2
- s_1_8 - s_1_1 - 1000 r_1_1_8 >= -1001
t_1_8 - t_1_1 + 1000.000000 u_1_1_8 - 0.000000 s_1_1  + 2000.000000 r_1_1_8 > 4.278700
s_2_8 + s_2_1 + 1000 r_2_1_8 >= 2
- s_2_8 - s_2_1 - 1000 r_2_1_8 >= -1001
t_2_8 - t_2_1 + 1000.000000 u_2_1_8 - 0.000000 s_2_1  + 2000.000000 r_2_1_8 > 6.903700
s_1_8 + s_1_2 + 1000 r_1_2_8 >= 2
- s_1_8 - s_1_2 - 1000 r_1_2_8 >= -1001
t_1_8 - t_1_2 + 1000.000000 u_1_2_8 - 0.000000 s_1_2  + 2000.000000 r_1_2_8 > 3.081300
s_2_8 + s_2_2 + 1000 r_2_2_8 >= 2
- s_2_8 - s_2_2 - 1000 r_2_2_8 >= -1001
t_2_8 - t_2_2 + 1000.000000 u_2_2_8 - 0.000000 s_2_2  + 2000.000000 r_2_2_8 > 5.333100
s_1_8 + s_1_3 + 1000 r_1_3_8 >= 2
- s_1_8 - s_1_3 - 1000 r_1_3_8 >= -1001
t_1_8 - t_1_3 + 1000.000000 u_1_3_8 - 0.000000 s_1_3  + 2000.000000 r_1_3_8 > 4.556600
s_2_8 + s_2_3 + 1000 r_2_3_8 >= 2
- s_2_8 - s_2_3 - 1000 r_2_3_8 >= -1001
t_2_8 - t_2_3 + 1000.000000 u_2_3_8 - 0.000000 s_2_3  + 2000.000000 r_2_3_8 > 6.522700
s_1_8 + s_1_4 + 1000 r_1_4_8 >= 2
- s_1_8 - s_1_4 - 1000 r_1_4_8 >= -1001
t_1_8 - t_1_4 + 1000.000000 u_1_4_8 - 0.000000 s_1_4  + 2000.000000 r_1_4_8 > 3.069800
s_2_8 + s_2_4 + 1000 r_2_4_8 >= 2
- s_2_8 - s_2_4 - 1000 r_2_4_8 >= -1001
t_2_8 - t_2_4 + 1000.000000 u_2_4_8 - 0.000000 s_2_4  + 2000.000000 r_2_4_8 > 5.186300
s_1_8 + s_1_5 + 1000 r_1_5_8 >= 2
- s_1_8 - s_1_5 - 1000 r_1_5_8 >= -1001
t_1_8 - t_1_5 + 1000.000000 u_1_5_8 - 0.000000 s_1_5  + 2000.000000 r_1_5_8 > 4.390100
s_2_8 + s_2_5 + 1000 r_2_5_8 >= 2
- s_2_8 - s_2_5 - 1000 r_2_5_8 >= -1001
t_2_8 - t_2_5 + 1000.000000 u_2_5_8 - 0.000000 s_2_5  + 2000.000000 r_2_5_8 > 6.391400
s_1_8 + s_1_6 + 1000 r_1_6_8 >= 2
- s_1_8 - s_1_6 - 1000 r_1_6_8 >= -1001
t_1_8 - t_1_6 + 1000.000000 u_1_6_8 - 0.000000 s_1_6  + 2000.000000 r_1_6_8 > 6.309200
s_2_8 + s_2_6 + 1000 r_2_6_8 >= 2
- s_2_8 - s_2_6 - 1000 r_2_6_8 >= -1001
t_2_8 - t_2_6 + 1000.000000 u_2_6_8 - 0.000000 s_2_6  + 2000.000000 r_2_6_8 > 8.614500
t_1_9 - t_1_8 - 1000.000000 s_1_8  > -995.691100
t_1_9 - t_2_8 - 1000.000000 s_2_8  > -993.035200
t_2_9 - t_1_8 - 1000.000000 s_1_8  > -995.691100
t_2_9 - t_2_8 - 1000.000000 s_2_8  > -993.035200
Binary
s_1_1
s_2_1
s_1_2
s_2_2
s_1_3
s_2_3
s_1_4
s_2_4
s_1_5
s_2_5
s_1_6
s_2_6
s_1_7
s_2_7
s_1_8
s_2_8
s_1_9
s_2_9
u_1_1_2
r_1_1_2
u_2_1_2
r_2_1_2
u_1_1_3
r_1_1_3
u_2_1_3
r_2_1_3
u_1_1_4
r_1_1_4
u_2_1_4
r_2_1_4
u_1_1_5
r_1_1_5
u_2_1_5
r_2_1_5
u_1_1_6
r_1_1_6
u_2_1_6
r_2_1_6
u_1_1_7
r_1_1_7
u_2_1_7
r_2_1_7
u_1_1_8
r_1_1_8
u_2_1_8
r_2_1_8
u_1_2_4
r_1_2_4
u_2_2_4
r_2_2_4
u_1_2_5
r_1_2_5
u_2_2_5
r_2_2_5
u_1_2_6
r_1_2_6
u_2_2_6
r_2_2_6
u_1_2_7
r_1_2_7
u_2_2_7
r_2_2_7
u_1_2_8
r_1_2_8
u_2_2_8
r_2_2_8
u_1_3_4
r_1_3_4
u_2_3_4
r_2_3_4
u_1_3_5
r_1_3_5
u_2_3_5
r_2_3_5
u_1_3_6
r_1_3_6
u_2_3_6
r_2_3_6
u_1_3_7
r_1_3_7
u_2_3_7
r_2_3_7
u_1_3_8
r_1_3_8
u_2_3_8
r_2_3_8
u_1_4_7
r_1_4_7
u_2_4_7
r_2_4_7
u_1_4_8
r_1_4_8
u_2_4_8
r_2_4_8
u_1_5_7
r_1_5_7
u_2_5_7
r_2_5_7
u_1_5_8
r_1_5_8
u_2_5_8
r_2_5_8
u_1_6_7
r_1_6_7
u_2_6_7
r_2_6_7
u_1_6_8
r_1_6_8
u_2_6_8
r_2_6_8

End
